Set parameter TSPort to value 51199
Set parameter TokenServer to value "open-license1.lanl.gov"
Set parameter TimeLimit to value 16
Set parameter Threads to value 1
Gurobi Optimizer version 10.0.3 build v10.0.3rc0 (linux64)

CPU model: Intel(R) Xeon(R) CPU E5-2695 v4 @ 2.10GHz, instruction set [SSE2|AVX|AVX2]
Thread count: 36 physical cores, 72 logical processors, using up to 1 threads

Optimize a model with 0 rows, 24 columns and 0 nonzeros
Model fingerprint: 0xe495f22f
Model has 66 quadratic objective terms
Variable types: 0 continuous, 24 integer (24 binary)
Coefficient statistics:
  Matrix range     [0e+00, 0e+00]
  Objective range  [2e+00, 2e+01]
  QObjective range [8e+00, 8e+00]
  Bounds range     [1e+00, 1e+00]
  RHS range        [0e+00, 0e+00]
Found heuristic solution: objective 0.0000000
Found heuristic solution: objective -44.0000000
Found heuristic solution: objective -118.0000000
Presolve time: 0.00s
Presolved: 66 rows, 90 columns, 198 nonzeros
Variable types: 0 continuous, 90 integer (90 binary)

Root relaxation: objective -1.380000e+02, 27 iterations, 0.00 seconds (0.00 work units)

    Nodes    |    Current Node    |     Objective Bounds      |     Work
 Expl Unexpl |  Obj  Depth IntInf | Incumbent    BestBd   Gap | It/Node Time

     0     0 -138.00000    0   24 -118.00000 -138.00000  16.9%     -    0s
     0     0 -120.00000    0   38 -118.00000 -120.00000  1.69%     -    0s
     0     0     cutoff    0      -118.00000 -118.00000  0.00%     -    0s

Cutting planes:
  Gomory: 1
  MIR: 11
  Zero half: 9
  RLT: 2
  BQP: 4

Explored 1 nodes (87 simplex iterations) in 0.02 seconds (0.00 work units)
Thread count was 1 (of 72 available processors)

Solution count 3: -118 -44 0 
No other solutions better than -118

Optimal solution found (tolerance 1.00e-04)
Best objective -1.180000000000e+02, best bound -1.180000000000e+02, gap 0.0000%

User-callback calls 114, time in user-callback 0.00 sec

BQP_SOLUTION, 24, 66, -46.000000, 0.023930, -1, -1, 1, -1, 1, -1, -1, -1, -1, -1, 1, -1, 1, 1, 1, 1, -1, 1, 1, 1, 1, 1, 1, 1
BQP_DATA, 24, 66, -46.000000, -46.000000, -118.000000, -118.000000, 0.023930, 21, 1
